(set-logic HORN)
(declare-fun assign_282_26_10_abs01 (Int Int Int Int Int Int) Bool)
(declare-fun assert_273_25_3_abs01 (Int Int Int Int Int Int) Bool)
(declare-fun assert_255_24_10_abs01 (Int Int Int Int Int Int) Bool)
(declare-fun while_285_22_8_abs01 (Int Int Int Int Int Int) Bool)
(declare-fun assert_217_21_8_abs01 (Int Int Int Int Int Int) Bool)
(declare-fun assign_187_20_8_abs01 (Int Int Int Int Int Int) Bool)
(declare-fun assert_181_19_8_abs01 (Int Int Int Int Int Int) Bool)
(declare-fun assign_151_18_1_abs01 (Int Int Int Int Int Int) Bool)
(declare-fun assert_145_17_8_abs01 (Int Int Int Int Int Int) Bool)
(declare-fun assign_112_15_5_abs01 (Int Int Int Int Int Int) Bool)
(declare-fun arrayassign_103_14_5_abs01 (Int Int Int Int Int Int) Bool)
(declare-fun assert_89_13_12_abs01 (Int Int Int Int Int Int) Bool)
(declare-fun while_115_12_1_abs01 (Int Int Int Int Int Int) Bool)
(declare-fun assign_46_11_1_abs01 (Int Int Int Int Int Int) Bool)
(declare-fun end_abs01 (Int Int Int Int Int Int) Bool)
(declare-fun start_abs01 (Int Int Int Int Int Int) Bool)
(assert (forall ((dest (Array Int Int)) (source (Array Int Int)) (l Int) (i Int) (vabs_f_f Int) (vabs_s_f_f Int)) (start_abs01 vabs_f_f (select dest vabs_f_f) vabs_s_f_f (select source vabs_s_f_f) l i)))
(assert (forall ((i Int) (l Int) (source (Array Int Int)) (dest (Array Int Int)) (vabs_0_f_f Int) (vabs_0_s_f_f Int)) (=> (start_abs01 vabs_0_f_f (select dest vabs_0_f_f) vabs_0_s_f_f (select source vabs_0_s_f_f) l i) (assign_46_11_1_abs01 vabs_0_f_f (select dest vabs_0_f_f) vabs_0_s_f_f (select source vabs_0_s_f_f) l i))))
(assert (forall ((i Int) (l Int) (source (Array Int Int)) (dest (Array Int Int)) (vabs_0_f_f Int) (vabs_0_s_f_f Int)) (=> (assign_46_11_1_abs01 vabs_0_f_f (select dest vabs_0_f_f) vabs_0_s_f_f (select source vabs_0_s_f_f) l i) (while_115_12_1_abs01 vabs_0_f_f (select dest vabs_0_f_f) vabs_0_s_f_f (select source vabs_0_s_f_f) l 0))))
(assert (forall ((dest (Array Int Int)) (source (Array Int Int)) (l Int) (i Int) (vabs_0_f_f Int) (vabs_0_s_f_f Int)) (=> (and (while_115_12_1_abs01 vabs_0_f_f (select dest vabs_0_f_f) i (select source i) l i) (while_115_12_1_abs01 vabs_0_f_f (select dest vabs_0_f_f) vabs_0_s_f_f (select source vabs_0_s_f_f) l i) (not (= (select source i) 0))) (assert_89_13_12_abs01 vabs_0_f_f (select dest vabs_0_f_f) vabs_0_s_f_f (select source vabs_0_s_f_f) l i))))
(assert (forall ((dest (Array Int Int)) (source (Array Int Int)) (l Int) (i Int) (vabs_0_f_f Int) (vabs_0_s_f_f Int)) (=> (and (while_115_12_1_abs01 vabs_0_f_f (select dest vabs_0_f_f) i (select source i) l i) (while_115_12_1_abs01 vabs_0_f_f (select dest vabs_0_f_f) vabs_0_s_f_f (select source vabs_0_s_f_f) l i) (not (not (= (select source i) 0)))) (assert_145_17_8_abs01 vabs_0_f_f (select dest vabs_0_f_f) vabs_0_s_f_f (select source vabs_0_s_f_f) l i))))
(assert (forall ((k Int) (i Int) (l Int) (source (Array Int Int)) (dest (Array Int Int))) (=> (and (assert_89_13_12_abs01 k (select dest k) k (select source k) l i) (<= 0 k) (< k i)) (= (select dest k) (select source k)))))
(assert (forall ((i Int) (l Int) (source (Array Int Int)) (dest (Array Int Int)) (vabs_0_f_f Int) (vabs_0_s_f_f Int)) (=> (assert_89_13_12_abs01 vabs_0_f_f (select dest vabs_0_f_f) vabs_0_s_f_f (select source vabs_0_s_f_f) l i) (arrayassign_103_14_5_abs01 vabs_0_f_f (select dest vabs_0_f_f) vabs_0_s_f_f (select source vabs_0_s_f_f) l i))))
(assert (forall ((i Int) (l Int) (source (Array Int Int)) (dest (Array Int Int)) (vabs_0_f_f Int) (vabs_0_s_f_f Int)) (=> (and (arrayassign_103_14_5_abs01 vabs_0_f_f (select dest vabs_0_f_f) vabs_0_s_f_f (select source vabs_0_s_f_f) l i) (arrayassign_103_14_5_abs01 vabs_0_f_f (select dest vabs_0_f_f) i (select source i) l i)) (assign_112_15_5_abs01 vabs_0_f_f (select (store dest i (select source i)) vabs_0_f_f) vabs_0_s_f_f (select source vabs_0_s_f_f) l i))))
(assert (forall ((i Int) (l Int) (source (Array Int Int)) (dest (Array Int Int)) (vabs_0_f_f Int) (vabs_0_s_f_f Int)) (=> (assign_112_15_5_abs01 vabs_0_f_f (select dest vabs_0_f_f) vabs_0_s_f_f (select source vabs_0_s_f_f) l i) (while_115_12_1_abs01 vabs_0_f_f (select dest vabs_0_f_f) vabs_0_s_f_f (select source vabs_0_s_f_f) l (+ i 1)))))
(assert (forall ((k Int) (i Int) (l Int) (source (Array Int Int)) (dest (Array Int Int))) (=> (and (assert_145_17_8_abs01 k (select dest k) k (select source k) l i) (<= 0 k) (< k i)) (= (select source k) (select dest k)))))
(assert (forall ((i Int) (l Int) (source (Array Int Int)) (dest (Array Int Int)) (vabs_0_f_f Int) (vabs_0_s_f_f Int)) (=> (assert_145_17_8_abs01 vabs_0_f_f (select dest vabs_0_f_f) vabs_0_s_f_f (select source vabs_0_s_f_f) l i) (assign_151_18_1_abs01 vabs_0_f_f (select dest vabs_0_f_f) vabs_0_s_f_f (select source vabs_0_s_f_f) l i))))
(assert (forall ((i Int) (l Int) (source (Array Int Int)) (dest (Array Int Int)) (vabs_0_f_f Int) (vabs_0_s_f_f Int)) (=> (assign_151_18_1_abs01 vabs_0_f_f (select dest vabs_0_f_f) vabs_0_s_f_f (select source vabs_0_s_f_f) l i) (assert_181_19_8_abs01 vabs_0_f_f (select dest vabs_0_f_f) vabs_0_s_f_f (select source vabs_0_s_f_f) i i))))
(assert (forall ((k Int) (i Int) (l Int) (source (Array Int Int)) (dest (Array Int Int))) (=> (and (assert_181_19_8_abs01 k (select dest k) k (select source k) l i) (<= 0 k) (< k l)) (= (select source k) (select dest k)))))
(assert (forall ((i Int) (l Int) (source (Array Int Int)) (dest (Array Int Int)) (vabs_0_f_f Int) (vabs_0_s_f_f Int)) (=> (assert_181_19_8_abs01 vabs_0_f_f (select dest vabs_0_f_f) vabs_0_s_f_f (select source vabs_0_s_f_f) l i) (assign_187_20_8_abs01 vabs_0_f_f (select dest vabs_0_f_f) vabs_0_s_f_f (select source vabs_0_s_f_f) l i))))
(assert (forall ((i Int) (l Int) (source (Array Int Int)) (dest (Array Int Int)) (vabs_0_f_f Int) (vabs_0_s_f_f Int)) (=> (assign_187_20_8_abs01 vabs_0_f_f (select dest vabs_0_f_f) vabs_0_s_f_f (select source vabs_0_s_f_f) l i) (assert_217_21_8_abs01 vabs_0_f_f (select dest vabs_0_f_f) vabs_0_s_f_f (select source vabs_0_s_f_f) l 0))))
(assert (forall ((k Int) (i Int) (l Int) (source (Array Int Int)) (dest (Array Int Int))) (=> (and (assert_217_21_8_abs01 k (select dest k) k (select source k) l i) (<= 0 k) (< k l)) (= (select source k) (select dest k)))))
(assert (forall ((i Int) (l Int) (source (Array Int Int)) (dest (Array Int Int)) (vabs_0_f_f Int) (vabs_0_s_f_f Int)) (=> (assert_217_21_8_abs01 vabs_0_f_f (select dest vabs_0_f_f) vabs_0_s_f_f (select source vabs_0_s_f_f) l i) (while_285_22_8_abs01 vabs_0_f_f (select dest vabs_0_f_f) vabs_0_s_f_f (select source vabs_0_s_f_f) l i))))
(assert (forall ((dest (Array Int Int)) (source (Array Int Int)) (l Int) (i Int) (vabs_0_f_f Int) (vabs_0_s_f_f Int)) (=> (and (while_285_22_8_abs01 vabs_0_f_f (select dest vabs_0_f_f) vabs_0_s_f_f (select source vabs_0_s_f_f) l i) (< i l)) (assert_255_24_10_abs01 vabs_0_f_f (select dest vabs_0_f_f) vabs_0_s_f_f (select source vabs_0_s_f_f) l i))))
(assert (forall ((dest (Array Int Int)) (source (Array Int Int)) (l Int) (i Int) (vabs_0_f_f Int) (vabs_0_s_f_f Int)) (=> (and (while_285_22_8_abs01 vabs_0_f_f (select dest vabs_0_f_f) vabs_0_s_f_f (select source vabs_0_s_f_f) l i) (not (< i l))) (end_abs01 vabs_0_f_f (select dest vabs_0_f_f) vabs_0_s_f_f (select source vabs_0_s_f_f) l i))))
(assert (forall ((k Int) (i Int) (l Int) (source (Array Int Int)) (dest (Array Int Int))) (=> (and (assert_255_24_10_abs01 k (select dest k) k (select source k) l i) (<= 0 k) (< k l)) (= (select source k) (select dest k)))))
(assert (forall ((i Int) (l Int) (source (Array Int Int)) (dest (Array Int Int)) (vabs_0_f_f Int) (vabs_0_s_f_f Int)) (=> (assert_255_24_10_abs01 vabs_0_f_f (select dest vabs_0_f_f) vabs_0_s_f_f (select source vabs_0_s_f_f) l i) (assert_273_25_3_abs01 vabs_0_f_f (select dest vabs_0_f_f) vabs_0_s_f_f (select source vabs_0_s_f_f) l i))))
(assert (forall ((i Int) (l Int) (source (Array Int Int)) (dest (Array Int Int))) (=> (assert_273_25_3_abs01 i (select dest i) i (select source i) l i) (= (select source i) (select dest i)))))
(assert (forall ((i Int) (l Int) (source (Array Int Int)) (dest (Array Int Int)) (vabs_0_f_f Int) (vabs_0_s_f_f Int)) (=> (assert_273_25_3_abs01 vabs_0_f_f (select dest vabs_0_f_f) vabs_0_s_f_f (select source vabs_0_s_f_f) l i) (assign_282_26_10_abs01 vabs_0_f_f (select dest vabs_0_f_f) vabs_0_s_f_f (select source vabs_0_s_f_f) l i))))
(assert (forall ((i Int) (l Int) (source (Array Int Int)) (dest (Array Int Int)) (vabs_0_f_f Int) (vabs_0_s_f_f Int)) (=> (assign_282_26_10_abs01 vabs_0_f_f (select dest vabs_0_f_f) vabs_0_s_f_f (select source vabs_0_s_f_f) l i) (while_285_22_8_abs01 vabs_0_f_f (select dest vabs_0_f_f) vabs_0_s_f_f (select source vabs_0_s_f_f) l (+ i 1)))))
(check-sat)